20
40
927
925
870
781
672
593
553
545
475
474
451
447
428
406
394
341
304
267
254
179
129	248
343	498
568	691
552	625
536	587
827	826
942	924
876	825
557	499
681	580
737	597
594	477
470	369
500	355
184	128
857	550
950	609
622	379
386	235
761	460
50	326
32	185
105	342
188	423
164	340
297	519
30	47
155	226
630	760
290	297
682	694
836	832
136	132
950	863
889	790
754	645
659	559
426	355
810	579
440	313
